0000000000000000
0000000000000000
0011111110000000
0000000001100000
0000000000111000
0000000000001000
0000000000001100
0000000000000100
0000000000000100
0000000000000100
0000000000000100
0000000000000100
0000000000011100
0011111111110000
0000000000000000
0000000000000000
